(set-logic QF_UFNRA)
(set-option :smt.arith.solver 4)
(declare-const v3 Bool)
(declare-const v4 Bool)
(declare-const v6 Bool)
(declare-const v12 Bool)
(declare-const v14 Bool)
(declare-const r3 Real)
(declare-const r6 Real)
(declare-const r8 Real)
(push 1)
(declare-const v19 Bool)
(assert (or (or v6 v14 v12) v4 v19 (> 28247.0 r6)))
(assert (or (distinct r8 (+ 168165.0 (- r3)) (- r3)) v4 v19))
(assert (or v4 v3 v3 v19))
(assert (or (distinct r8 (+ 168165.0 (- r3)) (- r3)) v3 v3))
(assert (or v4 v4 (distinct r6 28247.0)))
(check-sat)